<?xml version = "1.0" encoding="UTF-8" standalone="yes"?>
<CPLEXSolution version="1.2">
 <header
   problemName="IloCplex"
   solutionName="p0"
   solutionIndex="-1"
   objectiveValue="1431365460"
   solutionTypeValue="3"
   solutionTypeString="primal"
   solutionStatusValue="127"
   solutionStatusString="integer feasible solution"
   solutionMethodString="mip"
   primalFeasible="0"
   dualFeasible="0"
   writeLevel="3"/>
 <quality
   epInt="1.0000000000000001e-05"
   epRHS="9.9999999999999995e-07"
   maxIntInfeas="0"
   maxPrimalInfeas="0"
   maxX="11460"
   maxSlack="11034"/>
 <variables>
  <variable index="0" value="11460"/>
  <variable index="2" value="11460"/>
  <variable index="5" value="11460"/>
  <variable index="6" value="11460"/>
  <variable index="7" value="11460"/>
  <variable index="8" value="11460"/>
  <variable index="9" value="11460"/>
  <variable index="10" value="11460"/>
  <variable index="13" value="11460"/>
  <variable index="14" value="11460"/>
  <variable index="15" value="11460"/>
  <variable index="16" value="11460"/>
  <variable index="81" value="1"/>
  <variable index="185" value="1"/>
  <variable index="342" value="1"/>
  <variable index="566" value="1"/>
  <variable index="761" value="1"/>
  <variable index="905" value="1"/>
  <variable index="977" value="1"/>
  <variable index="1134" value="1"/>
  <variable index="1234" value="1"/>
  <variable index="1425" value="1"/>
  <variable index="1564" value="1"/>
  <variable index="1771" value="1"/>
  <variable index="1910" value="1"/>
  <variable index="2115" value="1"/>
  <variable index="2133" value="1"/>
  <variable index="2291" value="1"/>
  <variable index="2482" value="1"/>
  <variable index="2612" value="1"/>
  <variable index="2738" value="1"/>
  <variable index="2958" value="1"/>
  <variable index="3063" value="1"/>
  <variable index="3198" value="1"/>
  <variable index="3467" value="1"/>
  <variable index="3490" value="1"/>
  <variable index="3753" value="1"/>
  <variable index="3833" value="1"/>
  <variable index="4031" value="1"/>
  <variable index="4099" value="1"/>
  <variable index="4253" value="1"/>
  <variable index="4504" value="1"/>
  <variable index="4580" value="1"/>
  <variable index="4816" value="1"/>
  <variable index="4951" value="1"/>
  <variable index="5017" value="1"/>
  <variable index="5154" value="1"/>
  <variable index="5370" value="1"/>
  <variable index="5487" value="1"/>
  <variable index="5579" value="1"/>
  <variable index="5838" value="1"/>
  <variable index="5943" value="1"/>
  <variable index="6061" value="1"/>
  <variable index="6241" value="1"/>
  <variable index="6436" value="1"/>
  <variable index="6565" value="1"/>
  <variable index="6703" value="1"/>
  <variable index="6772" value="1"/>
  <variable index="7014" value="1"/>
  <variable index="7074" value="1"/>
  <variable index="7257" value="1"/>
  <variable index="7491" value="1"/>
  <variable index="7627" value="1"/>
  <variable index="7752" value="1"/>
  <variable index="7876" value="1"/>
  <variable index="8099" value="1"/>
  <variable index="8121" value="1"/>
  <variable index="8322" value="1"/>
  <variable index="8540" value="1"/>
  <variable index="8593" value="1"/>
  <variable index="8728" value="1"/>
  <variable index="8876" value="1"/>
  <variable index="9073" value="1"/>
  <variable index="9246" value="1"/>
  <variable index="9400" value="1"/>
  <variable index="9505" value="1"/>
  <variable index="9748" value="1"/>
  <variable index="9815" value="1"/>
  <variable index="9998" value="1"/>
  <variable index="10094" value="1"/>
  <variable index="10294" value="1"/>
  <variable index="10436" value="1"/>
  <variable index="10618" value="1"/>
  <variable index="10708" value="1"/>
  <variable index="10847" value="1"/>
  <variable index="11009" value="1"/>
  <variable index="11132" value="1"/>
  <variable index="11351" value="1"/>
  <variable index="11451" value="1"/>
  <variable index="11600" value="1"/>
  <variable index="11852" value="1"/>
  <variable index="11877" value="1"/>
  <variable index="12147" value="1"/>
  <variable index="12300" value="1"/>
  <variable index="12423" value="1"/>
  <variable index="12547" value="1"/>
  <variable index="12688" value="1"/>
  <variable index="12786" value="1"/>
  <variable index="13039" value="1"/>
  <variable index="13135" value="1"/>
  <variable index="13343" value="1"/>
  <variable index="13507" value="1"/>
  <variable index="13566" value="1"/>
  <variable index="13775" value="1"/>
  <variable index="13837" value="1"/>
  <variable index="14072" value="1"/>
  <variable index="14156" value="1"/>
  <variable index="14295" value="1"/>
  <variable index="14506" value="1"/>
  <variable index="14663" value="1"/>
  <variable index="14792" value="1"/>
  <variable index="14985" value="1"/>
  <variable index="15071" value="1"/>
  <variable index="15262" value="1"/>
  <variable index="15417" value="1"/>
  <variable index="15576" value="1"/>
  <variable index="15652" value="1"/>
  <variable index="15887" value="1"/>
  <variable index="16007" value="1"/>
  <variable index="16154" value="1"/>
  <variable index="16344" value="1"/>
  <variable index="16479" value="1"/>
  <variable index="16531" value="1"/>
  <variable index="16778" value="1"/>
  <variable index="16878" value="1"/>
  <variable index="16980" value="1"/>
  <variable index="17269" value="1"/>
  <variable index="17329" value="1"/>
  <variable index="17564" value="1"/>
  <variable index="17573" value="1"/>
  <variable index="17768" value="1"/>
  <variable index="17961" value="1"/>
  <variable index="18020" value="1"/>
  <variable index="18210" value="1"/>
  <variable index="18463" value="1"/>
  <variable index="18596" value="1"/>
  <variable index="18674" value="1"/>
  <variable index="18882" value="1"/>
  <variable index="18939" value="1"/>
  <variable index="19120" value="1"/>
  <variable index="19334" value="1"/>
  <variable index="19512" value="1"/>
  <variable index="19624" value="1"/>
  <variable index="19719" value="1"/>
  <variable index="19890" value="1"/>
  <variable index="20118" value="1"/>
  <variable index="20205" value="1"/>
  <variable index="20359" value="1"/>
  <variable index="20530" value="1"/>
  <variable index="20706" value="1"/>
  <variable index="20842" value="1"/>
  <variable index="21008" value="1"/>
  <variable index="21099" value="1"/>
  <variable index="21283" value="1"/>
  <variable index="21419" value="1"/>
  <variable index="21609" value="1"/>
  <variable index="21646" value="1"/>
  <variable index="21845" value="1"/>
  <variable index="21989" value="1"/>
  <variable index="22195" value="1"/>
  <variable index="22360" value="1"/>
  <variable index="22375" value="1"/>
  <variable index="22520" value="1"/>
  <variable index="22522" value="1"/>
  <variable index="22525" value="1"/>
  <variable index="22526" value="1"/>
  <variable index="22527" value="1"/>
  <variable index="22528" value="1"/>
  <variable index="22529" value="1"/>
  <variable index="22530" value="1"/>
  <variable index="22533" value="1"/>
  <variable index="22534" value="1"/>
  <variable index="22535" value="1"/>
  <variable index="22536" value="1"/>
  <variable index="22540" value="11460"/>
 </variables>
</CPLEXSolution>
